100
1000
210
209
207
202
199
196
196
195
194
193
190
188
187
187
185
185
184
184
182
179
178
178
178
176
171
169
169
168
168
167
167
165
164
159
158
158
154
152
151
150
148
147
142
142
142
140
140
139
138
137
136
136
134
125
125
123
123
121
121
120
120
118
118
117
117
116
114
114
112
111
111
108
108
107
106
104
102
102
102
97
97
96
94
94
94
92
88
84
84
83
81
81
80
80
78
76
76
76
74
73
